
set I:= 2	3	4 5 6	7 	8	9	10	11 12 13	14	15 16	17	18	19	20 21 22 
23 24 25 26 27 28 29 30 31 32 33 34 35 36 37 38 39 40 41 42 43 44 45 46 47 48 49 50 51
52 53 54 55 56 57 58 59 60 61  ;

set Nodos:= 1 2	3	4 5 6	7 	8	9	10	11 12 13	14	15 16	17	18	19	20 21 22
23 24 25 26 27 28 29 30 31 32 33 34 35 36 37 38 39 40 41 42 43 44 45 46 47 48 49 50 51
52 53 54 55 56 57 58 59 60 61  ;

set K:= 1 2 3;
set R:= A B C;
set T:= A B C;


param: xcoord	ycoord :=
1	61	37
2	93	57
3	15	67
4	23	43
5	53	5
6	13	75
7	29	73
8	47	37
9	23	71
10	67	45
11	21	49
12	93	43
13	67	13
14	69	25
15	53	35
16	25	39
17	85	69
18	81	27
19	77	79
20	45	43
21	31	75
22	49	99
23	63	9
24	47	37
25	33	47
26	39	69
27	49	3
28	49	87
29	87	39
30	37	91
31	19	33
32	97	35
33	31	5
34	35	25
35	79	61
36	73	73
37	35	95
38	5	43
39	19	45
40	71	39
41	35	63
42	27	73
43	31	21
44	47	9
45	87	45
46	1	49
47	1	77
48	63	73
49	79	71
50	21	55
51	65	23
52	65	47
53	97	23
54	23	71
55	5	81
56	53	27
57	57	85
58	89	23
59	51	65
60	13	49
61	91	41



;

param Q:=
1   35000
2   35000
3   35000
;

param P:=
A   30000
B   20000
C   10000
;


param alfa:=
A   1
B    .70
C    .30
;

param q:  A   B   C:=
1	0	0	0
2	2300	0	0
3	0	1700	0
4	0	0	1200
5	600	0	0
6	0	2200	0
7	0	0	300
8	2400	0	0
9	0	2400	0
10	0	0	1100
11	700	0	0
12	0	1200	0
13	0	0	800
14	1400	0	0
15	0	2000	0
16	0	0	1600
17	1600	0	0
18	0	400	0
19	0	0	900
20	1800	0	0
21	0	1400	0
22	0	0	1000
23	1900	0	0
24	0	2200	0
25	0	0	1900
26	900	0	0
27	0	1800	0
28	0	0	200
29	1800	0	0
30	0	1100	0
31	0	0	1900
32	1800	0	0
33	0	1500	0
34	0	0	400
35	1200	0	0
36	0	800	0
37	0	0	1800
38	1200	0	0
39	0	7200	0
40	0	0	200
41	500	0	0
42	0	1400	0
43	0	0	1100
44	1900	0	0
45	0	1600	0
46	0	0	1900
47	300	0	0
48	0	1200	0
49	0	0	1000
50	2000	0	0
51	0	700	0
52	0	0	1300
53	1600	0	0
54	0	2300	0
55	0	0	2200
56	1800	0	0
57	0	600	0
58	0	0	1200
59	2700	0	0
60	0	900	0
61	0	0	1500


;

param a:  A   B   C:=
1	0	0	0
2	1	0	0
3	0	1	0
4	0	0	1
5	1	0	0
6	0	1	0
7	0	0	1
8	1	0	0
9	0	1	0
10	0	0	1
11	1	0	0
12	0	1	0
13	0	0	1
14	1	0	0
15	0	1	0
16	0	0	1
17	1	0	0
18	0	1	0
19	0	0	1
20	1	0	0
21	0	1	0
22	0	0	1
23	1	0	0
24	0	1	0
25	0	0	1
26	1	0	0
27	0	1	0
28	0	0	1
29	1	0	0
30	0	1	0
31	0	0	1
32	1	0	0
33	0	1	0
34	0	0	1
35	1	0	0
36	0	1	0
37	0	0	1
38	1	0	0
39	0	1	0
40	0	0	1
41	1	0	0
42	0	1	0
43	0	0	1
44	1	0	0
45	0	1	0
46	0	0	1
47	1	0	0
48	0	1	0
49	0	0	1
50	1	0	0
51	0	1	0
52	0	0	1
53	1	0	0
54	0	1	0
55	0	0	1
56	1	0	0
57	0	1	0
58	0	0	1
59	1	0	0
60	0	1	0
61	0	0	1

;

param qu :=
1	0
2	2300
3	1700
4	1200
5	600
6	2200
7	300
8	2400
9	2400
10	1100
11	700
12	1200
13	800
14	1400
15	2000
16	1600
17	1600
18	400
19	900
20	1800
21	1400
22	1000
23	1900
24	2200
25	1900
26	900
27	1800
28	200
29	1800
30	1100
31	1900
32	1800
33	1500
34	400
35	1200
36	800
37	1800
38	1200
39	7200
40	200
41	500
42	1400
43	1100
44	1900
45	1600
46	1900
47	300
48	1200
49	1000
50	2000
51	700
52	1300
53	1600
54	2300
55	2200
56	1800
57	600
58	1200
59	2700
60	900
61	1500


;

set IT:=
(	2	,	A	)
(	3	,	B	)
(	4	,	C	)
(	5	,	A	)
(	6	,	B	)
(	7	,	C	)
(	8	,	A	)
(	9	,	B	)
(	10	,	C	)
(	11	,	A	)
(	12	,	B	)
(	13	,	C	)
(	14	,	A	)
(	15	,	B	)
(	16	,	C	)
(	17	,	A	)
(	18	,	B	)
(	19	,	C	)
(	20	,	A	)
(	21	,	B	)
(	22	,	C	)
(	23	,	A	)
(	24	,	B	)
(	25	,	C	)
(	26	,	A	)
(	27	,	B	)
(	28	,	C	)
(	29	,	A	)
(	30	,	B	)
(	31	,	C	)
(	32	,	A	)
(	33	,	B	)
(	34	,	C	)
(	35	,	A	)
(	36	,	B	)
(	37	,	C	)
(	38	,	A	)
(	39	,	B	)
(	40	,	C	)
(	41	,	A	)
(	42	,	B	)
(	43	,	C	)
(	44	,	A	)
(	45	,	B	)
(	46	,	C	)
(	47	,	A	)
(	48	,	B	)
(	49	,	C	)
(	50	,	A	)
(	51	,	B	)
(	52	,	C	)
(	53	,	A	)
(	54	,	B	)
(	55	,	C	)
(	56	,	A	)
(	57	,	B	)
(	58	,	C	)
(	59	,	A	)
(	60	,	B	)
(	61	,	C	)


;